certificates/rado_a7_c229_N33.cnf
c Rad2 upper bound instance: x1 + 7*x2 - x3 = 229, interval [1,33]
p cnf 33 202
1 3 33 0
-1 -3 -33 0
2 4 33 0
-2 -4 -33 0
3 5 33 0
-3 -5 -33 0
4 6 33 0
-4 -6 -33 0
5 7 33 0
-5 -7 -33 0
1 6 32 0
-1 -6 -32 0
6 8 33 0
-6 -8 -33 0
2 7 32 0
-2 -7 -32 0
7 9 33 0
-7 -9 -33 0
3 8 32 0
-3 -8 -32 0
8 10 33 0
-8 -10 -33 0
4 9 32 0
-4 -9 -32 0
9 11 33 0
-9 -11 -33 0
5 10 32 0
-5 -10 -32 0
10 12 33 0
-10 -12 -33 0
6 11 32 0
-6 -11 -32 0
11 13 33 0
-11 -13 -33 0
7 12 32 0
-7 -12 -32 0
12 14 33 0
-12 -14 -33 0
1 13 31 0
-1 -13 -31 0
8 13 32 0
-8 -13 -32 0
13 15 33 0
-13 -15 -33 0
2 14 31 0
-2 -14 -31 0
9 14 32 0
-9 -14 -32 0
14 16 33 0
-14 -16 -33 0
3 15 31 0
-3 -15 -31 0
10 15 32 0
-10 -15 -32 0
15 17 33 0
-15 -17 -33 0
4 16 31 0
-4 -16 -31 0
11 16 32 0
-11 -16 -32 0
16 18 33 0
-16 -18 -33 0
5 17 31 0
-5 -17 -31 0
12 17 32 0
-12 -17 -32 0
17 19 33 0
-17 -19 -33 0
6 18 31 0
-6 -18 -31 0
13 18 32 0
-13 -18 -32 0
18 20 33 0
-18 -20 -33 0
7 19 31 0
-7 -19 -31 0
14 19 32 0
-14 -19 -32 0
19 21 33 0
-19 -21 -33 0
1 20 30 0
-1 -20 -30 0
8 20 31 0
-8 -20 -31 0
15 20 32 0
-15 -20 -32 0
20 22 33 0
-20 -22 -33 0
2 21 30 0
-2 -21 -30 0
9 21 31 0
-9 -21 -31 0
16 21 32 0
-16 -21 -32 0
21 23 33 0
-21 -23 -33 0
3 22 30 0
-3 -22 -30 0
10 22 31 0
-10 -22 -31 0
17 22 32 0
-17 -22 -32 0
22 24 33 0
-22 -24 -33 0
4 23 30 0
-4 -23 -30 0
11 23 31 0
-11 -23 -31 0
18 23 32 0
-18 -23 -32 0
23 25 33 0
-23 -25 -33 0
5 24 30 0
-5 -24 -30 0
12 24 31 0
-12 -24 -31 0
19 24 32 0
-19 -24 -32 0
24 26 33 0
-24 -26 -33 0
6 25 30 0
-6 -25 -30 0
13 25 31 0
-13 -25 -31 0
20 25 32 0
-20 -25 -32 0
25 27 33 0
-25 -27 -33 0
7 26 30 0
-7 -26 -30 0
14 26 31 0
-14 -26 -31 0
21 26 32 0
-21 -26 -32 0
26 28 33 0
-26 -28 -33 0
1 27 29 0
-1 -27 -29 0
8 27 30 0
-8 -27 -30 0
15 27 31 0
-15 -27 -31 0
22 27 32 0
-22 -27 -32 0
27 29 33 0
-27 -29 -33 0
2 28 29 0
-2 -28 -29 0
9 28 30 0
-9 -28 -30 0
16 28 31 0
-16 -28 -31 0
23 28 32 0
-23 -28 -32 0
28 30 33 0
-28 -30 -33 0
3 29 0
-3 -29 0
10 29 30 0
-10 -29 -30 0
17 29 31 0
-17 -29 -31 0
24 29 32 0
-24 -29 -32 0
29 31 33 0
-29 -31 -33 0
4 29 30 0
-4 -29 -30 0
11 30 0
-11 -30 0
18 30 31 0
-18 -30 -31 0
25 30 32 0
-25 -30 -32 0
30 32 33 0
-30 -32 -33 0
5 29 31 0
-5 -29 -31 0
12 30 31 0
-12 -30 -31 0
19 31 0
-19 -31 0
26 31 32 0
-26 -31 -32 0
31 33 0
-31 -33 0
6 29 32 0
-6 -29 -32 0
13 30 32 0
-13 -30 -32 0
20 31 32 0
-20 -31 -32 0
27 32 0
-27 -32 0
7 29 33 0
-7 -29 -33 0
14 30 33 0
-14 -30 -33 0
21 31 33 0
-21 -31 -33 0
28 32 33 0
-28 -32 -33 0
