certificates/rado_a7_c229_N33.drat
-33 0
31 0
-19 0
17 0
21 0
-5 0
-29 0
-9 0
3 0
7 0
27 0
11 0
-15 0
-32 0
-23 0
-30 0
13 0
10 0
20 0
0
